n_res = 4;
rc = [ 14, 28, 20, 16 ];
n_tasks = 30;
d = [ 10, 3, 7, 5, 5, 10, 5, 9, 4, 7, 10, 7, 8, 10, 5, 7, 3, 9, 6, 5, 8, 9, 2, 6, 8, 2, 4, 4, 8, 7 ];
rr = [| 14, 14, 14, 14, 14, 14, 14, 14, 14, 14, 14, 14, 14, 14, 14, 14, 14, 14, 14, 14, 14, 14, 14, 14, 14, 14, 14, 14, 14, 14
      | 28, 28, 28, 28, 28, 28, 28, 28, 28, 28, 28, 28, 28, 28, 28, 28, 28, 28, 28, 28, 28, 28, 28, 28, 28, 28, 28, 28, 28, 28
      | 20, 20, 20, 20, 20, 20, 20, 20, 20, 20, 20, 20, 20, 20, 20, 20, 20, 20, 20, 20, 20, 20, 20, 20, 20, 20, 20, 20, 20, 20
      | 16, 16, 16, 16, 16, 16, 16, 16, 16, 16, 16, 16, 16, 16, 16, 16, 16, 16, 16, 16, 16, 16, 16, 16, 16, 16, 16, 16, 16, 16|];
suc = [ { 8, 13, 26 },
       { 5, 10, 29 },
       { 4, 6, 9 },
       { 18, 23 },
       { 7, 14, 18 },
       { 19 },
       { 11, 12, 17 },
       { 12, 14, 15 },
       { 16, 17, 24 },
       { 23, 25 },
       { 20, 25 },
       { 20, 24 },
       { 20, 22, 24 },
       { 22, 28 },
       { 16, 17, 18 },
       { 27 },
       { 21, 25, 27 },
       { 28 },
       { 22 },
       { 21 },
       { 23 },
       { 27 },
       { 30 },
       { 30 },
       { 28 },
       { 29 },
       { 30 },
       {  },
       {  },
       {  } ];
